
Gurobi 11.0.0 (win64) logging started Sat Jun 15 09:46:03 2024


Gurobi 11.0.0 (win64) logging started Sat Jun 15 10:44:43 2024


Gurobi 11.0.0 (win64) logging started Sat Jun 15 11:03:15 2024


Gurobi 11.0.0 (win64) logging started Tue Jul  2 10:37:07 2024

